(set-logic HORN)
(set-info :source |
    Benchmark: C_VC
    Output by Princess (http://www.philipp.ruemmer.org/princess.shtml)
|)
(set-info :status unsat)
(declare-heap Heap Addr HeapObject
 defObj
 ((HeapObject 0)) (
  (
   (O_Int (getInt Int))
   (O_UInt (getUInt Int))
   (O_Addr (getAddr Addr))
   (defObj)
  )
))
(declare-fun inv_main13 (Heap Int Int Int Int Int AddrRange) Bool)
(declare-fun inv_main16 (Heap Int Int Int Int Int AddrRange) Bool)
(declare-fun inv_main19 (Heap Int Int Int Int Int AddrRange) Bool)
(declare-fun inv_main2 (Heap Int) Bool)
(declare-fun inv_main20 (Heap Int Int Int Int Int AddrRange) Bool)
(declare-fun inv_main21 (Heap Int Int Int Int Int AddrRange) Bool)
(declare-fun inv_main24 (Heap Int Int Int Int Int AddrRange) Bool)
(declare-fun inv_main29 (Heap Int Int Int Int Int AddrRange Int) Bool)
(assert (inv_main2 emptyHeap 0))
(assert (forall ((var0 AddrRange) (var1 Int) (var2 Int) (var3 Int) (var4 Int) (var5 Int) (var6 Heap)) (or (not (and (inv_main13 var6 var5 var4 var3 var2 var1 var0) (<= 0 (+ var2 (* (- 1) var3))))) (inv_main13 var6 var5 var4 (+ var3 1) var2 (+ var1 2) var0))))
(assert (forall ((var0 AddrRange) (var1 Int) (var2 Int) (var3 Int) (var4 Int) (var5 Int) (var6 Int) (var7 Int) (var8 Int) (var9 Int) (var10 Heap) (var11 Int) (var12 Int) (var13 Int) (var14 Heap)) (or (not (and (inv_main2 var14 var13) (and (and (and (not (<= 0 (+ (+ var12 (- 10000)) (- 1)))) (<= 0 var12)) (and (not (= var11 0)) (and (and (and (and (and (and (= var10 (newBatchHeap (batchAlloc emptyHeap (O_Int var9) 1025))) (= var8 var13)) (= var11 var7)) (= var6 var5)) (= var4 var3)) (= var2 var1)) (= var0 (newAddrRange (batchAlloc emptyHeap (O_Int var9) 1025)))))) (and (and (<= 0 var5) (<= 0 var3)) (<= 0 var1))))) (inv_main13 var10 var8 var11 0 0 var12 var0))))
(assert (forall ((var0 AddrRange) (var1 Int) (var2 Int) (var3 Int) (var4 Int) (var5 Int) (var6 Int) (var7 Int) (var8 Int) (var9 Int) (var10 Heap) (var11 Int) (var12 Int) (var13 Int) (var14 Heap)) (or (not (and (inv_main2 var14 var13) (and (and (and (not (<= 0 (+ (+ var12 (- 10000)) (- 1)))) (<= 0 var12)) (and (= var11 0) (and (and (and (and (and (and (= var10 (newBatchHeap (batchAlloc emptyHeap (O_Int var9) 1025))) (= var8 var13)) (= var11 var7)) (= var6 var5)) (= var4 var3)) (= var2 var1)) (= var0 (newAddrRange (batchAlloc emptyHeap (O_Int var9) 1025)))))) (and (and (<= 0 var5) (<= 0 var3)) (<= 0 var1))))) (inv_main13 var10 var8 var11 0 1023 var12 var0))))
(assert (forall ((var0 AddrRange) (var1 Int) (var2 Int) (var3 Int) (var4 Int) (var5 Int) (var6 Heap)) (or (not (and (inv_main16 var6 var5 var4 var3 var2 var1 var0) (and (is-O_Int (read var6 (nthAddrRange var0 var3))) (is-O_Int (read var6 (nthAddrRange var0 var3)))))) (inv_main19 (write var6 (nthAddrRange var0 var3) (O_Int 0)) var5 var4 var3 var2 var1 var0))))
(assert (forall ((var0 AddrRange) (var1 Int) (var2 Int) (var3 Int) (var4 Int) (var5 Int) (var6 Heap)) (or (not (inv_main19 var6 var5 var4 var3 var2 var1 var0)) (inv_main20 var6 var5 var4 var3 var2 var1 var0))))
(assert (forall ((var0 AddrRange) (var1 Int) (var2 Int) (var3 Int) (var4 Int) (var5 Int) (var6 Heap)) (or (not (and (inv_main13 var6 var5 var4 var3 var2 var1 var0) (not (<= 0 (+ var2 (* (- 1) var3)))))) (inv_main16 var6 var5 var4 var3 var2 var1 var0))))
(assert (forall ((var0 AddrRange) (var1 Int) (var2 Int) (var3 Int) (var4 Int) (var5 Int) (var6 Heap)) (or (not (and (inv_main20 var6 var5 var4 var3 var2 var1 var0) (and (is-O_Int (read var6 (nthAddrRange var0 var1))) (is-O_Int (read var6 (nthAddrRange var0 var1)))))) (inv_main21 (write var6 (nthAddrRange var0 var1) (O_Int 0)) var5 var4 var3 var2 var1 var0))))
(assert (forall ((var0 AddrRange) (var1 Int) (var2 Int) (var3 Int) (var4 Int) (var5 Heap) (var6 Int) (var7 AddrRange) (var8 Int) (var9 Int) (var10 Int) (var11 Int) (var12 Int) (var13 Heap)) (or (not (and (inv_main21 var13 var12 var11 var10 var9 var8 var7) (and (and (not (<= 0 var6)) (and (is-O_Int (read var13 (nthAddrRange var7 var12))) (is-O_Int (read var13 (nthAddrRange var7 var12))))) (and (and (and (and (and (and (= var5 (write var13 (nthAddrRange var7 var12) (O_Int 0))) (= var6 var12)) (= var4 var11)) (= var3 var10)) (= var2 var9)) (= var1 var8)) (= var0 var7))))) (inv_main29 var5 var6 var4 var3 var2 var1 var0 var6))))
(assert (forall ((var0 AddrRange) (var1 AddrRange) (var2 Int) (var3 Int) (var4 Int) (var5 Int) (var6 Int) (var7 Int) (var8 Int) (var9 Int) (var10 Int) (var11 Heap) (var12 Heap) (var13 Int) (var14 Int) (var15 AddrRange) (var16 Int) (var17 Int) (var18 Int) (var19 Int) (var20 Int) (var21 Heap)) (or (not (and (inv_main21 var21 var20 var19 var18 var17 var16 var15) (and (and (and (and (= var14 0) (<= 0 var13)) (and (and (and (and (and (and (and (= var12 var11) (= var10 var13)) (= var9 var8)) (= var7 var6)) (= var5 var4)) (= var3 var2)) (= var1 var0)) (or (and (<= 0 (+ (+ 1023 (* (- 1) var13)) (- 1))) (= var14 1)) (and (not (<= 0 (+ (+ 1023 (* (- 1) var13)) (- 1)))) (= var14 0))))) (and (is-O_Int (read var21 (nthAddrRange var15 var20))) (is-O_Int (read var21 (nthAddrRange var15 var20))))) (and (and (and (and (and (and (= var11 (write var21 (nthAddrRange var15 var20) (O_Int 0))) (= var13 var20)) (= var8 var19)) (= var6 var18)) (= var4 var17)) (= var2 var16)) (= var0 var15))))) (inv_main29 var12 var10 var9 var7 var5 var3 var1 var10))))
(assert (forall ((var0 AddrRange) (var1 AddrRange) (var2 Int) (var3 Int) (var4 Int) (var5 Int) (var6 Int) (var7 Int) (var8 Int) (var9 Int) (var10 Int) (var11 Heap) (var12 Heap) (var13 Int) (var14 Int) (var15 AddrRange) (var16 Int) (var17 Int) (var18 Int) (var19 Int) (var20 Int) (var21 Heap)) (or (not (and (inv_main21 var21 var20 var19 var18 var17 var16 var15) (and (and (and (and (not (= var14 0)) (<= 0 var13)) (and (and (and (and (and (and (and (= var12 var11) (= var10 var13)) (= var9 var8)) (= var7 var6)) (= var5 var4)) (= var3 var2)) (= var1 var0)) (or (and (<= 0 (+ (+ 1023 (* (- 1) var13)) (- 1))) (= var14 1)) (and (not (<= 0 (+ (+ 1023 (* (- 1) var13)) (- 1)))) (= var14 0))))) (and (is-O_Int (read var21 (nthAddrRange var15 var20))) (is-O_Int (read var21 (nthAddrRange var15 var20))))) (and (and (and (and (and (and (= var11 (write var21 (nthAddrRange var15 var20) (O_Int 0))) (= var13 var20)) (= var8 var19)) (= var6 var18)) (= var4 var17)) (= var2 var16)) (= var0 var15))))) (inv_main24 var12 var10 var9 var7 var5 var3 var1))))
(assert (forall ((var0 AddrRange) (var1 Int) (var2 Int) (var3 Int) (var4 Int) (var5 Int) (var6 Heap)) (not (and (inv_main16 var6 var5 var4 var3 var2 var1 var0) (not (is-O_Int (read var6 (nthAddrRange var0 var3))))))))
(assert (forall ((var0 AddrRange) (var1 Int) (var2 Int) (var3 Int) (var4 Int) (var5 Int) (var6 Heap)) (not (and (inv_main16 var6 var5 var4 var3 var2 var1 var0) (and (is-O_Int (read var6 (nthAddrRange var0 var3))) (not (within var0 (nthAddrRange var0 var3))))))))
(assert (forall ((var0 AddrRange) (var1 Int) (var2 Int) (var3 Int) (var4 Int) (var5 Int) (var6 Heap)) (not (and (inv_main16 var6 var5 var4 var3 var2 var1 var0) (and (is-O_Int (read var6 (nthAddrRange var0 var3))) (not (is-O_Int (read var6 (nthAddrRange var0 var3)))))))))
(assert (forall ((var0 AddrRange) (var1 Int) (var2 Int) (var3 Int) (var4 Int) (var5 Int) (var6 Heap)) (not (and (inv_main19 var6 var5 var4 var3 var2 var1 var0) (not (<= 0 (+ (+ 1025 (* (- 1) var1)) (- 1))))))))
(assert (forall ((var0 AddrRange) (var1 Int) (var2 Int) (var3 Int) (var4 Int) (var5 Int) (var6 Heap)) (not (and (inv_main20 var6 var5 var4 var3 var2 var1 var0) (not (is-O_Int (read var6 (nthAddrRange var0 var1))))))))
(assert (forall ((var0 AddrRange) (var1 Int) (var2 Int) (var3 Int) (var4 Int) (var5 Int) (var6 Heap)) (not (and (inv_main20 var6 var5 var4 var3 var2 var1 var0) (and (is-O_Int (read var6 (nthAddrRange var0 var1))) (not (within var0 (nthAddrRange var0 var1))))))))
(assert (forall ((var0 AddrRange) (var1 Int) (var2 Int) (var3 Int) (var4 Int) (var5 Int) (var6 Heap)) (not (and (inv_main20 var6 var5 var4 var3 var2 var1 var0) (and (is-O_Int (read var6 (nthAddrRange var0 var1))) (not (is-O_Int (read var6 (nthAddrRange var0 var1)))))))))
(assert (forall ((var0 AddrRange) (var1 Int) (var2 Int) (var3 Int) (var4 Int) (var5 Int) (var6 Heap)) (not (and (inv_main21 var6 var5 var4 var3 var2 var1 var0) (not (is-O_Int (read var6 (nthAddrRange var0 var5))))))))
(assert (forall ((var0 AddrRange) (var1 Int) (var2 Int) (var3 Int) (var4 Int) (var5 Int) (var6 Heap)) (not (and (inv_main21 var6 var5 var4 var3 var2 var1 var0) (and (is-O_Int (read var6 (nthAddrRange var0 var5))) (not (within var0 (nthAddrRange var0 var5))))))))
(assert (forall ((var0 AddrRange) (var1 Int) (var2 Int) (var3 Int) (var4 Int) (var5 Int) (var6 Heap)) (not (and (inv_main21 var6 var5 var4 var3 var2 var1 var0) (and (is-O_Int (read var6 (nthAddrRange var0 var5))) (not (is-O_Int (read var6 (nthAddrRange var0 var5)))))))))
(assert (forall ((var0 AddrRange) (var1 Int) (var2 Int) (var3 Int) (var4 Int) (var5 Int) (var6 Heap)) (not (and (inv_main24 var6 var5 var4 var3 var2 var1 var0) (not (is-O_Int (read var6 (nthAddrRange var0 var5))))))))
(assert (forall ((var0 AddrRange) (var1 Int) (var2 Int) (var3 Int) (var4 Int) (var5 Int) (var6 Heap)) (not (and (inv_main24 var6 var5 var4 var3 var2 var1 var0) (and (is-O_Int (read var6 (nthAddrRange var0 var5))) (not (within var0 (nthAddrRange var0 var5))))))))
(assert (forall ((var0 AddrRange) (var1 Int) (var2 Int) (var3 Int) (var4 Int) (var5 Int) (var6 Heap)) (not (and (inv_main24 var6 var5 var4 var3 var2 var1 var0) (and (is-O_Int (read var6 (nthAddrRange var0 var5))) (not (is-O_Int (read var6 (nthAddrRange var0 var5)))))))))
(assert (forall ((var0 Int) (var1 AddrRange) (var2 Int) (var3 Int) (var4 Int) (var5 Int) (var6 Int) (var7 Heap) (var8 Int) (var9 Int)) (not (and (inv_main29 var7 var6 var5 var4 var3 var2 var1 var0) (not (or (not (and (and (and (and (<= 0 (+ (+ 1023 (* (- 1) var8)) (- 1))) (<= 0 (+ (+ 1023 (* 1 var8)) (- 1)))) (or (not (<= 0 (+ var8 (- 1)))) (<= 0 (+ var0 (- 1))))) (or (not (<= 0 (+ (* (- 1) var8) (- 1)))) (<= 0 (+ (* (- 1) var0) (- 1))))) (= var0 (+ (* 1023 var9) var8)))) (is-O_Int (read var7 (nthAddrRange var1 var8)))))))))
(assert (forall ((var0 Int) (var1 AddrRange) (var2 Int) (var3 Int) (var4 Int) (var5 Int) (var6 Int) (var7 Heap) (var8 Int) (var9 Int) (var10 Int) (var11 Int)) (not (and (inv_main29 var7 var6 var5 var4 var3 var2 var1 var0) (and (and (and (and (and (and (<= 0 (+ (+ 1023 (* (- 1) var8)) (- 1))) (<= 0 (+ (+ 1023 (* 1 var8)) (- 1)))) (or (not (<= 0 (+ var8 (- 1)))) (<= 0 (+ var0 (- 1))))) (or (not (<= 0 (+ (* (- 1) var8) (- 1)))) (<= 0 (+ (* (- 1) var0) (- 1))))) (= var0 (+ (* 1023 var9) var8))) (is-O_Int (read var7 (nthAddrRange var1 var8)))) (not (or (not (and (and (and (and (<= 0 (+ (+ 1023 (* (- 1) var10)) (- 1))) (<= 0 (+ (+ 1023 (* 1 var10)) (- 1)))) (or (not (<= 0 (+ var10 (- 1)))) (<= 0 (+ var0 (- 1))))) (or (not (<= 0 (+ (* (- 1) var10) (- 1)))) (<= 0 (+ (* (- 1) var0) (- 1))))) (= var0 (+ (* 1023 var11) var10)))) (within var1 (nthAddrRange var1 var10)))))))))
(assert (forall ((var0 Int) (var1 AddrRange) (var2 Int) (var3 Int) (var4 Int) (var5 Int) (var6 Int) (var7 Heap) (var8 Int) (var9 Int) (var10 Int) (var11 Int)) (not (and (inv_main29 var7 var6 var5 var4 var3 var2 var1 var0) (and (and (and (and (and (and (<= 0 (+ (+ 1023 (* (- 1) var8)) (- 1))) (<= 0 (+ (+ 1023 (* 1 var8)) (- 1)))) (or (not (<= 0 (+ var8 (- 1)))) (<= 0 (+ var0 (- 1))))) (or (not (<= 0 (+ (* (- 1) var8) (- 1)))) (<= 0 (+ (* (- 1) var0) (- 1))))) (= var0 (+ (* 1023 var9) var8))) (is-O_Int (read var7 (nthAddrRange var1 var8)))) (not (or (not (and (and (and (and (<= 0 (+ (+ 1023 (* (- 1) var10)) (- 1))) (<= 0 (+ (+ 1023 (* 1 var10)) (- 1)))) (or (not (<= 0 (+ var10 (- 1)))) (<= 0 (+ var0 (- 1))))) (or (not (<= 0 (+ (* (- 1) var10) (- 1)))) (<= 0 (+ (* (- 1) var0) (- 1))))) (= var0 (+ (* 1023 var11) var10)))) (is-O_Int (read var7 (nthAddrRange var1 var10))))))))))
(check-sat)
